db/data/284533005126443291839324204271712729438.z3.out
sat
-------------------
3.557164708
